10 10 4

0 120 255 278 428 459 283 195 274 198 
488 0 89 115 89 127 372 365 464 157 
115 454 0 200 481 264 470 254 481 442 
389 117 362 0 155 187 324 383 115 282 
373 467 55 70 0 454 301 135 250 134 
213 321 98 321 386 0 258 227 123 472 
403 83 452 100 179 275 0 413 284 413 
236 373 234 468 245 407 229 0 473 117 
236 314 317 321 478 137 125 54 0 230 
333 438 59 60 341 92 463 391 221 0 

185.75 0 1
185.75 1 6
185.75 2 1
185.75 3 4
185.75 4 3
185.75 5 6
185.75 6 2
185.75 7 3
185.75 8 5
185.75 9 3

